(set-option :produce-models true)
(set-logic QF_LRA)
(set-info :notes | Strip-packing problem.|)
(declare-fun x0 () Real)
(declare-fun y0 () Real)
(declare-fun x1 () Real)
(declare-fun y1 () Real)
(declare-fun x2 () Real)
(declare-fun y2 () Real)
(declare-fun x3 () Real)
(declare-fun y3 () Real)
(declare-fun x4 () Real)
(declare-fun y4 () Real)
(declare-fun x5 () Real)
(declare-fun y5 () Real)
(declare-fun x6 () Real)
(declare-fun y6 () Real)
(declare-fun x7 () Real)
(declare-fun y7 () Real)
(declare-fun x8 () Real)
(declare-fun y8 () Real)
(declare-fun z () Real)
(declare-fun c () Real)
(assert (and (= c z) (and (>= x0 0) 
(and (>= y0 0) 
(and (>= x1 0) 
(and (>= y1 0) 
(and (>= x2 0) 
(and (>= y2 0) 
(and (>= x3 0) 
(and (>= y3 0) 
(and (>= x4 0) 
(and (>= y4 0) 
(and (>= x5 0) 
(and (>= y5 0) 
(and (>= x6 0) 
(and (>= y6 0) 
(and (>= x7 0) 
(and (>= y7 0) 
(and (>= x8 0) 
(and (>= y8 0) 
(and (>= z 0) 
(and (>= c 0) 
(and (<= (+ x0 0.8232291021) z) 
(and (<= 0.9650121245 y0) 
(and (<= y0 1.0) 
(and (<= x0 (- 4.0927319542 0.8232291021)) 
(and (>= x0 0) 
(and (<= (+ x1 0.7962459129) z) 
(and (<= 0.9602590675 y1) 
(and (<= y1 1.0) 
(and (<= x1 (- 4.0927319542 0.7962459129)) 
(and (>= x1 0) 
(and (<= (+ x2 0.5605387153) z) 
(and (<= 0.8769824305 y2) 
(and (<= y2 1.0) 
(and (<= x2 (- 4.0927319542 0.5605387153)) 
(and (>= x2 0) 
(and (<= (+ x3 0.9044817649) z) 
(and (<= 0.6917804312 y3) 
(and (<= y3 1.0) 
(and (<= x3 (- 4.0927319542 0.9044817649)) 
(and (>= x3 0) 
(and (<= (+ x4 0.0279063324) z) 
(and (<= 0.5847068111 y4) 
(and (<= y4 1.0) 
(and (<= x4 (- 4.0927319542 0.0279063324)) 
(and (>= x4 0) 
(and (<= (+ x5 0.0551238835) z) 
(and (<= 0.5705336221 y5) 
(and (<= y5 1.0) 
(and (<= x5 (- 4.0927319542 0.0551238835)) 
(and (>= x5 0) 
(and (<= (+ x6 0.9252062431) z) 
(and (<= 0.2339992642 y6) 
(and (<= y6 1.0) 
(and (<= x6 (- 4.0927319542 0.9252062431)) 
(and (>= x6 0) 
(and (<= (+ x7 0.5992975626) z) 
(and (<= 0.118350181 y7) 
(and (<= y7 1.0) 
(and (<= x7 (- 4.0927319542 0.5992975626)) 
(and (>= x7 0) 
(and (<= (+ x8 0.3783860484) z) 
(and (<= 0.0805458435 y8) 
(and (<= y8 1.0) 
(and (<= x8 (- 4.0927319542 0.3783860484)) 
(and (>= x8 0) 
(and (<= c 4.0927319542) 
(and (or (<= (+ x0 0.8232291021) x1) (or (<= (+ x1 0.7962459129) x0) (or (>= (- y0 0.9650121245) y1) (or (>= (- y1 0.9602590675) y0))))) 
(and (or (<= (+ x0 0.8232291021) x2) (or (<= (+ x2 0.5605387153) x0) (or (>= (- y0 0.9650121245) y2) (or (>= (- y2 0.8769824305) y0))))) 
(and (or (<= (+ x0 0.8232291021) x3) (or (<= (+ x3 0.9044817649) x0) (or (>= (- y0 0.9650121245) y3) (or (>= (- y3 0.6917804312) y0))))) 
(and (or (<= (+ x0 0.8232291021) x4) (or (<= (+ x4 0.0279063324) x0) (or (>= (- y0 0.9650121245) y4) (or (>= (- y4 0.5847068111) y0))))) 
(and (or (<= (+ x0 0.8232291021) x5) (or (<= (+ x5 0.0551238835) x0) (or (>= (- y0 0.9650121245) y5) (or (>= (- y5 0.5705336221) y0))))) 
(and (or (<= (+ x0 0.8232291021) x6) (or (<= (+ x6 0.9252062431) x0) (or (>= (- y0 0.9650121245) y6) (or (>= (- y6 0.2339992642) y0))))) 
(and (or (<= (+ x0 0.8232291021) x7) (or (<= (+ x7 0.5992975626) x0) (or (>= (- y0 0.9650121245) y7) (or (>= (- y7 0.118350181) y0))))) 
(and (or (<= (+ x0 0.8232291021) x8) (or (<= (+ x8 0.3783860484) x0) (or (>= (- y0 0.9650121245) y8) (or (>= (- y8 0.0805458435) y0))))) 
(and (or (<= (+ x1 0.7962459129) x2) (or (<= (+ x2 0.5605387153) x1) (or (>= (- y1 0.9602590675) y2) (or (>= (- y2 0.8769824305) y1))))) 
(and (or (<= (+ x1 0.7962459129) x3) (or (<= (+ x3 0.9044817649) x1) (or (>= (- y1 0.9602590675) y3) (or (>= (- y3 0.6917804312) y1))))) 
(and (or (<= (+ x1 0.7962459129) x4) (or (<= (+ x4 0.0279063324) x1) (or (>= (- y1 0.9602590675) y4) (or (>= (- y4 0.5847068111) y1))))) 
(and (or (<= (+ x1 0.7962459129) x5) (or (<= (+ x5 0.0551238835) x1) (or (>= (- y1 0.9602590675) y5) (or (>= (- y5 0.5705336221) y1))))) 
(and (or (<= (+ x1 0.7962459129) x6) (or (<= (+ x6 0.9252062431) x1) (or (>= (- y1 0.9602590675) y6) (or (>= (- y6 0.2339992642) y1))))) 
(and (or (<= (+ x1 0.7962459129) x7) (or (<= (+ x7 0.5992975626) x1) (or (>= (- y1 0.9602590675) y7) (or (>= (- y7 0.118350181) y1))))) 
(and (or (<= (+ x1 0.7962459129) x8) (or (<= (+ x8 0.3783860484) x1) (or (>= (- y1 0.9602590675) y8) (or (>= (- y8 0.0805458435) y1))))) 
(and (or (<= (+ x2 0.5605387153) x3) (or (<= (+ x3 0.9044817649) x2) (or (>= (- y2 0.8769824305) y3) (or (>= (- y3 0.6917804312) y2))))) 
(and (or (<= (+ x2 0.5605387153) x4) (or (<= (+ x4 0.0279063324) x2) (or (>= (- y2 0.8769824305) y4) (or (>= (- y4 0.5847068111) y2))))) 
(and (or (<= (+ x2 0.5605387153) x5) (or (<= (+ x5 0.0551238835) x2) (or (>= (- y2 0.8769824305) y5) (or (>= (- y5 0.5705336221) y2))))) 
(and (or (<= (+ x2 0.5605387153) x6) (or (<= (+ x6 0.9252062431) x2) (or (>= (- y2 0.8769824305) y6) (or (>= (- y6 0.2339992642) y2))))) 
(and (or (<= (+ x2 0.5605387153) x7) (or (<= (+ x7 0.5992975626) x2) (or (>= (- y2 0.8769824305) y7) (or (>= (- y7 0.118350181) y2))))) 
(and (or (<= (+ x2 0.5605387153) x8) (or (<= (+ x8 0.3783860484) x2) (or (>= (- y2 0.8769824305) y8) (or (>= (- y8 0.0805458435) y2))))) 
(and (or (<= (+ x3 0.9044817649) x4) (or (<= (+ x4 0.0279063324) x3) (or (>= (- y3 0.6917804312) y4) (or (>= (- y4 0.5847068111) y3))))) 
(and (or (<= (+ x3 0.9044817649) x5) (or (<= (+ x5 0.0551238835) x3) (or (>= (- y3 0.6917804312) y5) (or (>= (- y5 0.5705336221) y3))))) 
(and (or (<= (+ x3 0.9044817649) x6) (or (<= (+ x6 0.9252062431) x3) (or (>= (- y3 0.6917804312) y6) (or (>= (- y6 0.2339992642) y3))))) 
(and (or (<= (+ x3 0.9044817649) x7) (or (<= (+ x7 0.5992975626) x3) (or (>= (- y3 0.6917804312) y7) (or (>= (- y7 0.118350181) y3))))) 
(and (or (<= (+ x3 0.9044817649) x8) (or (<= (+ x8 0.3783860484) x3) (or (>= (- y3 0.6917804312) y8) (or (>= (- y8 0.0805458435) y3))))) 
(and (or (<= (+ x4 0.0279063324) x5) (or (<= (+ x5 0.0551238835) x4) (or (>= (- y4 0.5847068111) y5) (or (>= (- y5 0.5705336221) y4))))) 
(and (or (<= (+ x4 0.0279063324) x6) (or (<= (+ x6 0.9252062431) x4) (or (>= (- y4 0.5847068111) y6) (or (>= (- y6 0.2339992642) y4))))) 
(and (or (<= (+ x4 0.0279063324) x7) (or (<= (+ x7 0.5992975626) x4) (or (>= (- y4 0.5847068111) y7) (or (>= (- y7 0.118350181) y4))))) 
(and (or (<= (+ x4 0.0279063324) x8) (or (<= (+ x8 0.3783860484) x4) (or (>= (- y4 0.5847068111) y8) (or (>= (- y8 0.0805458435) y4))))) 
(and (or (<= (+ x5 0.0551238835) x6) (or (<= (+ x6 0.9252062431) x5) (or (>= (- y5 0.5705336221) y6) (or (>= (- y6 0.2339992642) y5))))) 
(and (or (<= (+ x5 0.0551238835) x7) (or (<= (+ x7 0.5992975626) x5) (or (>= (- y5 0.5705336221) y7) (or (>= (- y7 0.118350181) y5))))) 
(and (or (<= (+ x5 0.0551238835) x8) (or (<= (+ x8 0.3783860484) x5) (or (>= (- y5 0.5705336221) y8) (or (>= (- y8 0.0805458435) y5))))) 
(and (or (<= (+ x6 0.9252062431) x7) (or (<= (+ x7 0.5992975626) x6) (or (>= (- y6 0.2339992642) y7) (or (>= (- y7 0.118350181) y6))))) 
(and (or (<= (+ x6 0.9252062431) x8) (or (<= (+ x8 0.3783860484) x6) (or (>= (- y6 0.2339992642) y8) (or (>= (- y8 0.0805458435) y6))))) 
(and (or (<= (+ x7 0.5992975626) x8) (or (<= (+ x8 0.3783860484) x7) (or (>= (- y7 0.118350181) y8) (or (>= (- y8 0.0805458435) y7))))) ))))))))))))))))))))))))))))))))))))))))))))))))))))))))))))))))))))))))))))))))))))))))))))))))))))))))
(minimize c)
(check-sat)
(get-objectives)
(exit)
